c Generated map
c Size: 10 * 10, weights in range: 1 to 10, walls: False, with ratio 0.0
c dim 7 of 7
c
p sp 100 180
c graph contains 100 nodes and 180 arcs
c
a 1 11 5
a 11 1 5
a 1 2 8
a 2 1 8
a 2 12 3
a 12 2 3
a 2 3 7
a 3 2 7
a 3 13 6
a 13 3 6
a 3 4 4
a 4 3 4
a 4 14 7
a 14 4 7
a 4 5 8
a 5 4 8
a 5 15 5
a 15 5 5
a 5 6 7
a 6 5 7
a 6 16 2
a 16 6 2
a 6 7 7
a 7 6 7
a 7 17 5
a 17 7 5
a 7 8 7
a 8 7 7
a 8 18 5
a 18 8 5
a 8 9 1
a 9 8 1
a 9 19 1
a 19 9 1
a 9 10 4
a 10 9 4
a 10 20 9
a 20 10 9
a 11 21 4
a 21 11 4
a 11 12 1
a 12 11 1
a 12 22 4
a 22 12 4
a 12 13 5
a 13 12 5
a 13 23 9
a 23 13 9
a 13 14 1
a 14 13 1
a 14 24 5
a 24 14 5
a 14 15 2
a 15 14 2
a 15 25 8
a 25 15 8
a 15 16 4
a 16 15 4
a 16 26 3
a 26 16 3
a 16 17 5
a 17 16 5
a 17 27 6
a 27 17 6
a 17 18 5
a 18 17 5
a 18 28 5
a 28 18 5
a 18 19 4
a 19 18 4
a 19 29 8
a 29 19 8
a 19 20 1
a 20 19 1
a 20 30 10
a 30 20 10
a 21 31 2
a 31 21 2
a 21 22 7
a 22 21 7
a 22 32 7
a 32 22 7
a 22 23 7
a 23 22 7
a 23 33 6
a 33 23 6
a 23 24 3
a 24 23 3
a 24 34 9
a 34 24 9
a 24 25 6
a 25 24 6
a 25 35 5
a 35 25 5
a 25 26 3
a 26 25 3
a 26 36 10
a 36 26 10
a 26 27 5
a 27 26 5
a 27 37 7
a 37 27 7
a 27 28 10
a 28 27 10
a 28 38 3
a 38 28 3
a 28 29 5
a 29 28 5
a 29 39 1
a 39 29 1
a 29 30 10
a 30 29 10
a 30 40 6
a 40 30 6
a 31 41 9
a 41 31 9
a 31 32 4
a 32 31 4
a 32 42 7
a 42 32 7
a 32 33 1
a 33 32 1
a 33 43 6
a 43 33 6
a 33 34 4
a 34 33 4
a 34 44 4
a 44 34 4
a 34 35 6
a 35 34 6
a 35 45 6
a 45 35 6
a 35 36 6
a 36 35 6
a 36 46 5
a 46 36 5
a 36 37 10
a 37 36 10
a 37 47 3
a 47 37 3
a 37 38 8
a 38 37 8
a 38 48 5
a 48 38 5
a 38 39 3
a 39 38 3
a 39 49 6
a 49 39 6
a 39 40 1
a 40 39 1
a 40 50 7
a 50 40 7
a 41 51 3
a 51 41 3
a 41 42 5
a 42 41 5
a 42 52 3
a 52 42 3
a 42 43 4
a 43 42 4
a 43 53 2
a 53 43 2
a 43 44 6
a 44 43 6
a 44 54 8
a 54 44 8
a 44 45 4
a 45 44 4
a 45 55 10
a 55 45 10
a 45 46 7
a 46 45 7
a 46 56 1
a 56 46 1
a 46 47 6
a 47 46 6
a 47 57 7
a 57 47 7
a 47 48 10
a 48 47 10
a 48 58 2
a 58 48 2
a 48 49 10
a 49 48 10
a 49 59 6
a 59 49 6
a 49 50 7
a 50 49 7
a 50 60 8
a 60 50 8
a 51 61 3
a 61 51 3
a 51 52 8
a 52 51 8
a 52 62 10
a 62 52 10
a 52 53 3
a 53 52 3
a 53 63 7
a 63 53 7
a 53 54 7
a 54 53 7
a 54 64 7
a 64 54 7
a 54 55 1
a 55 54 1
a 55 65 2
a 65 55 2
a 55 56 8
a 56 55 8
a 56 66 1
a 66 56 1
a 56 57 10
a 57 56 10
a 57 67 6
a 67 57 6
a 57 58 5
a 58 57 5
a 58 68 8
a 68 58 8
a 58 59 4
a 59 58 4
a 59 69 4
a 69 59 4
a 59 60 4
a 60 59 4
a 60 70 5
a 70 60 5
a 61 71 1
a 71 61 1
a 61 62 8
a 62 61 8
a 62 72 6
a 72 62 6
a 62 63 1
a 63 62 1
a 63 73 9
a 73 63 9
a 63 64 3
a 64 63 3
a 64 74 3
a 74 64 3
a 64 65 10
a 65 64 10
a 65 75 7
a 75 65 7
a 65 66 8
a 66 65 8
a 66 76 5
a 76 66 5
a 66 67 6
a 67 66 6
a 67 77 9
a 77 67 9
a 67 68 3
a 68 67 3
a 68 78 3
a 78 68 3
a 68 69 8
a 69 68 8
a 69 79 6
a 79 69 6
a 69 70 7
a 70 69 7
a 70 80 5
a 80 70 5
a 71 81 6
a 81 71 6
a 71 72 8
a 72 71 8
a 72 82 1
a 82 72 1
a 72 73 4
a 73 72 4
a 73 83 8
a 83 73 8
a 73 74 4
a 74 73 4
a 74 84 8
a 84 74 8
a 74 75 1
a 75 74 1
a 75 85 8
a 85 75 8
a 75 76 3
a 76 75 3
a 76 86 2
a 86 76 2
a 76 77 8
a 77 76 8
a 77 87 2
a 87 77 2
a 77 78 8
a 78 77 8
a 78 88 6
a 88 78 6
a 78 79 5
a 79 78 5
a 79 89 5
a 89 79 5
a 79 80 8
a 80 79 8
a 80 90 9
a 90 80 9
a 81 91 9
a 91 81 9
a 81 82 5
a 82 81 5
a 82 92 4
a 92 82 4
a 82 83 8
a 83 82 8
a 83 93 6
a 93 83 6
a 83 84 10
a 84 83 10
a 84 94 3
a 94 84 3
a 84 85 4
a 85 84 4
a 85 95 8
a 95 85 8
a 85 86 5
a 86 85 5
a 86 96 8
a 96 86 8
a 86 87 1
a 87 86 1
a 87 97 3
a 97 87 3
a 87 88 10
a 88 87 10
a 88 98 1
a 98 88 1
a 88 89 4
a 89 88 4
a 89 99 6
a 99 89 6
a 89 90 1
a 90 89 1
a 90 100 3
a 100 90 3
a 91 92 6
a 92 91 6
a 92 93 8
a 93 92 8
a 93 94 7
a 94 93 7
a 94 95 8
a 95 94 8
a 95 96 9
a 96 95 9
a 96 97 9
a 97 96 9
a 97 98 1
a 98 97 1
a 98 99 8
a 99 98 8
a 99 100 2
a 100 99 2
